p cnf 120 760
1 2 3 0
4 5 6 0
7 8 9 0
10 11 12 0
13 14 15 0
16 17 18 0
19 20 21 0
22 23 24 0
25 26 27 0
28 29 30 0
31 32 33 0
34 35 36 0
37 38 39 0
40 41 42 0
43 44 45 0
46 47 48 0
49 50 51 0
52 53 54 0
55 56 57 0
58 59 60 0
61 62 63 0
64 65 66 0
67 68 69 0
70 71 72 0
73 74 75 0
76 77 78 0
79 80 81 0
82 83 84 0
85 86 87 0
88 89 90 0
91 92 93 0
94 95 96 0
97 98 99 0
100 101 102 0
103 104 105 0
106 107 108 0
109 110 111 0
112 113 114 0
115 116 117 0
118 119 120 0
-1 -2 0
-1 -3 0
-2 -3 0
-4 -5 0
-4 -6 0
-5 -6 0
-7 -8 0
-7 -9 0
-8 -9 0
-10 -11 0
-10 -12 0
-11 -12 0
-13 -14 0
-13 -15 0
-14 -15 0
-16 -17 0
-16 -18 0
-17 -18 0
-19 -20 0
-19 -21 0
-20 -21 0
-22 -23 0
-22 -24 0
-23 -24 0
-25 -26 0
-25 -27 0
-26 -27 0
-28 -29 0
-28 -30 0
-29 -30 0
-31 -32 0
-31 -33 0
-32 -33 0
-34 -35 0
-34 -36 0
-35 -36 0
-37 -38 0
-37 -39 0
-38 -39 0
-40 -41 0
-40 -42 0
-41 -42 0
-43 -44 0
-43 -45 0
-44 -45 0
-46 -47 0
-46 -48 0
-47 -48 0
-49 -50 0
-49 -51 0
-50 -51 0
-52 -53 0
-52 -54 0
-53 -54 0
-55 -56 0
-55 -57 0
-56 -57 0
-58 -59 0
-58 -60 0
-59 -60 0
-61 -62 0
-61 -63 0
-62 -63 0
-64 -65 0
-64 -66 0
-65 -66 0
-67 -68 0
-67 -69 0
-68 -69 0
-70 -71 0
-70 -72 0
-71 -72 0
-73 -74 0
-73 -75 0
-74 -75 0
-76 -77 0
-76 -78 0
-77 -78 0
-79 -80 0
-79 -81 0
-80 -81 0
-82 -83 0
-82 -84 0
-83 -84 0
-85 -86 0
-85 -87 0
-86 -87 0
-88 -89 0
-88 -90 0
-89 -90 0
-91 -92 0
-91 -93 0
-92 -93 0
-94 -95 0
-94 -96 0
-95 -96 0
-97 -98 0
-97 -99 0
-98 -99 0
-100 -101 0
-100 -102 0
-101 -102 0
-103 -104 0
-103 -105 0
-104 -105 0
-106 -107 0
-106 -108 0
-107 -108 0
-109 -110 0
-109 -111 0
-110 -111 0
-112 -113 0
-112 -114 0
-113 -114 0
-115 -116 0
-115 -117 0
-116 -117 0
-118 -119 0
-118 -120 0
-119 -120 0
-1 -10 0
-2 -11 0
-3 -12 0
-1 -4 0
-2 -5 0
-3 -6 0
-1 -7 0
-2 -8 0
-3 -9 0
-1 -16 0
-2 -17 0
-3 -18 0
-1 -13 0
-2 -14 0
-3 -15 0
-4 -28 0
-5 -29 0
-6 -30 0
-4 -19 0
-5 -20 0
-6 -21 0
-4 -22 0
-5 -23 0
-6 -24 0
-4 -25 0
-5 -26 0
-6 -27 0
-4 -1 0
-5 -2 0
-6 -3 0
-7 -49 0
-8 -50 0
-9 -51 0
-7 -58 0
-8 -59 0
-9 -60 0
-7 -22 0
-8 -23 0
-9 -24 0
-7 -46 0
-8 -47 0
-9 -48 0
-7 -1 0
-8 -2 0
-9 -3 0
-10 -19 0
-11 -20 0
-12 -21 0
-10 -13 0
-11 -14 0
-12 -15 0
-10 -85 0
-11 -86 0
-12 -87 0
-10 -1 0
-11 -2 0
-12 -3 0
-10 -103 0
-11 -104 0
-12 -105 0
-13 -10 0
-14 -11 0
-15 -12 0
-13 -49 0
-14 -50 0
-15 -51 0
-13 -25 0
-14 -26 0
-15 -27 0
-13 -76 0
-14 -77 0
-15 -78 0
-13 -1 0
-14 -2 0
-15 -3 0
-16 -82 0
-17 -83 0
-18 -84 0
-16 -94 0
-17 -95 0
-18 -96 0
-16 -109 0
-17 -110 0
-18 -111 0
-16 -52 0
-17 -53 0
-18 -54 0
-16 -1 0
-17 -2 0
-18 -3 0
-19 -10 0
-20 -11 0
-21 -12 0
-19 -4 0
-20 -5 0
-21 -6 0
-19 -37 0
-20 -38 0
-21 -39 0
-19 -91 0
-20 -92 0
-21 -93 0
-19 -79 0
-20 -80 0
-21 -81 0
-22 -4 0
-23 -5 0
-24 -6 0
-22 -97 0
-23 -98 0
-24 -99 0
-22 -7 0
-23 -8 0
-24 -9 0
-22 -25 0
-23 -26 0
-24 -27 0
-22 -43 0
-23 -44 0
-24 -45 0
-25 -4 0
-26 -5 0
-27 -6 0
-25 -22 0
-26 -23 0
-27 -24 0
-25 -106 0
-26 -107 0
-27 -108 0
-25 -31 0
-26 -32 0
-27 -33 0
-25 -13 0
-26 -14 0
-27 -15 0
-28 -4 0
-29 -5 0
-30 -6 0
-28 -73 0
-29 -74 0
-30 -75 0
-28 -112 0
-29 -113 0
-30 -114 0
-28 -109 0
-29 -110 0
-30 -111 0
-28 -115 0
-29 -116 0
-30 -117 0
-31 -37 0
-32 -38 0
-33 -39 0
-31 -25 0
-32 -26 0
-33 -27 0
-31 -43 0
-32 -44 0
-33 -45 0
-31 -34 0
-32 -35 0
-33 -36 0
-31 -40 0
-32 -41 0
-33 -42 0
-34 -49 0
-35 -50 0
-36 -51 0
-34 -52 0
-35 -53 0
-36 -54 0
-34 -31 0
-35 -32 0
-36 -33 0
-34 -46 0
-35 -47 0
-36 -48 0
-34 -55 0
-35 -56 0
-36 -57 0
-37 -19 0
-38 -20 0
-39 -21 0
-37 -49 0
-38 -50 0
-39 -51 0
-37 -106 0
-38 -107 0
-39 -108 0
-37 -31 0
-38 -32 0
-39 -33 0
-37 -55 0
-38 -56 0
-39 -57 0
-40 -94 0
-41 -95 0
-42 -96 0
-40 -43 0
-41 -44 0
-42 -45 0
-40 -31 0
-41 -32 0
-42 -33 0
-40 -100 0
-41 -101 0
-42 -102 0
-40 -118 0
-41 -119 0
-42 -120 0
-43 -22 0
-44 -23 0
-45 -24 0
-43 -31 0
-44 -32 0
-45 -33 0
-43 -115 0
-44 -116 0
-45 -117 0
-43 -40 0
-44 -41 0
-45 -42 0
-43 -85 0
-44 -86 0
-45 -87 0
-46 -88 0
-47 -89 0
-48 -90 0
-46 -82 0
-47 -83 0
-48 -84 0
-46 -7 0
-47 -8 0
-48 -9 0
-46 -34 0
-47 -35 0
-48 -36 0
-46 -76 0
-47 -77 0
-48 -78 0
-49 -97 0
-50 -98 0
-51 -99 0
-49 -37 0
-50 -38 0
-51 -39 0
-49 -7 0
-50 -8 0
-51 -9 0
-49 -34 0
-50 -35 0
-51 -36 0
-49 -13 0
-50 -14 0
-51 -15 0
-52 -16 0
-53 -17 0
-54 -18 0
-52 -34 0
-53 -35 0
-54 -36 0
-52 -64 0
-53 -65 0
-54 -66 0
-52 -118 0
-53 -119 0
-54 -120 0
-52 -55 0
-53 -56 0
-54 -57 0
-55 -37 0
-56 -38 0
-57 -39 0
-55 -52 0
-56 -53 0
-57 -54 0
-55 -34 0
-56 -35 0
-57 -36 0
-55 -91 0
-56 -92 0
-57 -93 0
-55 -115 0
-56 -116 0
-57 -117 0
-58 -70 0
-59 -71 0
-60 -72 0
-58 -7 0
-59 -8 0
-60 -9 0
-58 -61 0
-59 -62 0
-60 -63 0
-58 -64 0
-59 -65 0
-60 -66 0
-58 -67 0
-59 -68 0
-60 -69 0
-61 -70 0
-62 -71 0
-63 -72 0
-61 -73 0
-62 -74 0
-63 -75 0
-61 -58 0
-62 -59 0
-63 -60 0
-61 -76 0
-62 -77 0
-63 -78 0
-61 -79 0
-62 -80 0
-63 -81 0
-64 -73 0
-65 -74 0
-66 -75 0
-64 -58 0
-65 -59 0
-66 -60 0
-64 -94 0
-65 -95 0
-66 -96 0
-64 -52 0
-65 -53 0
-66 -54 0
-64 -100 0
-65 -101 0
-66 -102 0
-67 -58 0
-68 -59 0
-69 -60 0
-67 -112 0
-68 -113 0
-69 -114 0
-67 -115 0
-68 -116 0
-69 -117 0
-67 -85 0
-68 -86 0
-69 -87 0
-67 -118 0
-68 -119 0
-69 -120 0
-70 -73 0
-71 -74 0
-72 -75 0
-70 -58 0
-71 -59 0
-72 -60 0
-70 -61 0
-71 -62 0
-72 -63 0
-70 -118 0
-71 -119 0
-72 -120 0
-70 -103 0
-71 -104 0
-72 -105 0
-73 -70 0
-74 -71 0
-75 -72 0
-73 -28 0
-74 -29 0
-75 -30 0
-73 -97 0
-74 -98 0
-75 -99 0
-73 -61 0
-74 -62 0
-75 -63 0
-73 -64 0
-74 -65 0
-75 -66 0
-76 -94 0
-77 -95 0
-78 -96 0
-76 -61 0
-77 -62 0
-78 -63 0
-76 -100 0
-77 -101 0
-78 -102 0
-76 -13 0
-77 -14 0
-78 -15 0
-76 -46 0
-77 -47 0
-78 -48 0
-79 -19 0
-80 -20 0
-81 -21 0
-79 -97 0
-80 -98 0
-81 -99 0
-79 -112 0
-80 -113 0
-81 -114 0
-79 -109 0
-80 -110 0
-81 -111 0
-79 -61 0
-80 -62 0
-81 -63 0
-82 -88 0
-83 -89 0
-84 -90 0
-82 -16 0
-83 -17 0
-84 -18 0
-82 -91 0
-83 -92 0
-84 -93 0
-82 -46 0
-83 -47 0
-84 -48 0
-82 -85 0
-83 -86 0
-84 -87 0
-85 -10 0
-86 -11 0
-87 -12 0
-85 -82 0
-86 -83 0
-87 -84 0
-85 -94 0
-86 -95 0
-87 -96 0
-85 -43 0
-86 -44 0
-87 -45 0
-85 -67 0
-86 -68 0
-87 -69 0
-88 -82 0
-89 -83 0
-90 -84 0
-88 -112 0
-89 -113 0
-90 -114 0
-88 -106 0
-89 -107 0
-90 -108 0
-88 -46 0
-89 -47 0
-90 -48 0
-88 -118 0
-89 -119 0
-90 -120 0
-91 -19 0
-92 -20 0
-93 -21 0
-91 -82 0
-92 -83 0
-93 -84 0
-91 -106 0
-92 -107 0
-93 -108 0
-91 -55 0
-92 -56 0
-93 -57 0
-91 -103 0
-92 -104 0
-93 -105 0
-94 -16 0
-95 -17 0
-96 -18 0
-94 -76 0
-95 -77 0
-96 -78 0
-94 -64 0
-95 -65 0
-96 -66 0
-94 -40 0
-95 -41 0
-96 -42 0
-94 -85 0
-95 -86 0
-96 -87 0
-97 -49 0
-98 -50 0
-99 -51 0
-97 -73 0
-98 -74 0
-99 -75 0
-97 -22 0
-98 -23 0
-99 -24 0
-97 -109 0
-98 -110 0
-99 -111 0
-97 -79 0
-98 -80 0
-99 -81 0
-100 -112 0
-101 -113 0
-102 -114 0
-100 -76 0
-101 -77 0
-102 -78 0
-100 -64 0
-101 -65 0
-102 -66 0
-100 -40 0
-101 -41 0
-102 -42 0
-100 -103 0
-101 -104 0
-102 -105 0
-103 -70 0
-104 -71 0
-105 -72 0
-103 -10 0
-104 -11 0
-105 -12 0
-103 -106 0
-104 -107 0
-105 -108 0
-103 -100 0
-104 -101 0
-105 -102 0
-103 -91 0
-104 -92 0
-105 -93 0
-106 -88 0
-107 -89 0
-108 -90 0
-106 -37 0
-107 -38 0
-108 -39 0
-106 -25 0
-107 -26 0
-108 -27 0
-106 -91 0
-107 -92 0
-108 -93 0
-106 -103 0
-107 -104 0
-108 -105 0
-109 -28 0
-110 -29 0
-111 -30 0
-109 -97 0
-110 -98 0
-111 -99 0
-109 -16 0
-110 -17 0
-111 -18 0
-109 -79 0
-110 -80 0
-111 -81 0
-109 -115 0
-110 -116 0
-111 -117 0
-112 -28 0
-113 -29 0
-114 -30 0
-112 -88 0
-113 -89 0
-114 -90 0
-112 -100 0
-113 -101 0
-114 -102 0
-112 -79 0
-113 -80 0
-114 -81 0
-112 -67 0
-113 -68 0
-114 -69 0
-115 -28 0
-116 -29 0
-117 -30 0
-115 -109 0
-116 -110 0
-117 -111 0
-115 -43 0
-116 -44 0
-117 -45 0
-115 -67 0
-116 -68 0
-117 -69 0
-115 -55 0
-116 -56 0
-117 -57 0
-118 -70 0
-119 -71 0
-120 -72 0
-118 -88 0
-119 -89 0
-120 -90 0
-118 -52 0
-119 -53 0
-120 -54 0
-118 -40 0
-119 -41 0
-120 -42 0
-118 -67 0
-119 -68 0
-120 -69 0
